&CONTROL
    calculation = 'scf'
    prefix      = 'NiO'
    restart_mode = 'from_scratch'
    outdir      = '/Users/kirill/Documents/dft/volume/NiO_dos/out'
    pseudo_dir  = '/Users/kirill/Documents/dft/volume/NiO_dos/../../pot'
/
&SYSTEM
    ibrav = 2
    celldm(1) = 7.837
    nat   = 2
    ntyp  = 2
    ecutwfc = 55
    ecutrho = 550
    nbnd = 36,
/
&ELECTRONS
    mixing_beta = 0.3
    conv_thr    = 1d-9
/
ATOMIC_SPECIES
Ni  58.6934  Ni.pbesol-n-rrkjus_psl.0.1.UPF
O   15.999   O.pbesol-n-rrkjus_psl.1.0.0.UPF

ATOMIC_POSITIONS (alat)
Ni  0.00000000  0.00000000  0.00000000 0 0 0
O   0.50000000  0.50000000  0.50000000 0 0 0

K_POINTS automatic
4 4 4 0 0 0
