    &DOS
    prefix='NiO'
    outdir='/Users/kirill/Documents/dft/volume/NiO_dos/out'
    fildos='nio.dos.dat'
    emin=-10
    emax=20
/
