&CONTROL
    calculation = 'vc-relax'
    prefix      = 'NiO'
    restart_mode = 'from_scratch'
    outdir      = '/Users/kirill/Documents/dft/volume/NiO_struct_opt_dft_U/out'
    pseudo_dir  = '/Users/kirill/Documents/dft/volume/NiO_struct_opt_dft_U/../../pot'
    tprnfor     = .true.
    etot_conv_thr = 1e-5
    forc_conv_thr = 1e-4 
/
&SYSTEM
    ibrav = 5
    celldm(1) = 9.647
    celldm(4) = 0.83333333
    nat   = 4
    ntyp  = 3
    nspin = 2
    starting_magnetization(1) =  1.5
    starting_magnetization(2) = 1.5
    tot_magnetization = 0.0
    ecutwfc = 55
    ecutrho = 550
/
&ELECTRONS
    mixing_beta = 0.2
    conv_thr    = 1d-9
/
&IONS
    ion_dynamics='bfgs'
/
&CELL
    cell_dofree='all'
    cell_dynamics='bfgs'
/
ATOMIC_SPECIES
 Ni1  58.6934  Ni.pbesol-n-rrkjus_psl.0.1.UPF
 Ni2  58.6934  Ni.pbesol-n-rrkjus_psl.0.1.UPF
 O    15.999   O.pbesol-n-rrkjus_psl.1.0.0.UPF

ATOMIC_POSITIONS (crystal)
    Ni1  0.0000000000   0.0000000000   0.0000000000
    Ni2 -0.5000000000   1.5000000000  -0.5000000000
    O    0.7500000000  -0.2500000000  -0.2500000000
    O   -0.7500000000   0.2500000000   0.2500000000

K_POINTS (automatic)
6 6 6 0 0 0

HUBBARD (ortho-atomic)
U Ni1-3d 7.6
U Ni2-3d 7.6
