&CONTROL
    calculation = 'scf'
    prefix      = 'NiO'
    restart_mode = 'from_scratch'
    outdir      = '/Users/kirill/Documents/dft/volume/NiO_calibr/band_gap_U/out'
    pseudo_dir  = '/Users/kirill/Documents/dft/volume/NiO_calibr/band_gap_U/../../../pot'
    tprnfor     = .true.
/
&SYSTEM
    ibrav = 5
    celldm(1) = 9.711
    celldm(4) = 0.8333
    nat   = 4
    ntyp  = 3
    nspin = 4
    noncolin = .true.
    lspinorb = .true.
    starting_magnetization(1) =  0.2
    starting_magnetization(2) = -0.2
    ecutwfc = 55
    ecutrho = 550
    nbnd = 40
/
&ELECTRONS
    mixing_beta = 0.3
    conv_thr    = 1d-9
/
&IONS
/
&CELL
    cell_dofree='ibrav'
/
ATOMIC_SPECIES
Ni1  58.6934  Ni.rel-pbesol-n-rrkjus_psl.0.1.UPF
Ni2  58.6934  Ni.rel-pbesol-n-rrkjus_psl.0.1.UPF
O   15.999   O.rel-pbesol-n-rrkjus_psl.1.0.0.UPF

ATOMIC_POSITIONS (crystal)
    Ni1  0.0000000000   0.0000000000   0.0000000000
    Ni2 -0.5000000000   1.5000000000  -0.5000000000
    O    0.7500000000  -0.2500000000  -0.2500000000
    O   -0.7500000000   0.2500000000   0.2500000000

K_POINTS automatic
6 6 6 0 0 0

HUBBARD (ortho-atomic)
U Ni1-3d 8
U Ni2-3d 8
